$rem
   JOBTYPE Opt
   EXCHANGE B3LYP
   BASIS 6-31G(d)
   GUI=2
$end

$comment
   Q-Chem input generated by Avogadro.
$end

$molecule
   0 1
   C      1.126214    0.765886    0.000000
   C      0.819345   -0.564955    0.000000
   C     -0.598383   -0.795127    0.000000
   C     -1.310706    0.370165    0.000000
   S     -0.285330    1.757144    0.000000
   H      2.130424    1.185837    0.000000
   H      1.548377   -1.375303    0.000000
   H     -1.033768   -1.794407    0.000000
   H     -2.396173    0.450760    0.000000
$end
